Welcome to the CBC MILP Solver 
Version: 2.10.12 
Build Date: Aug 20 2024 

command line - /opt/homebrew/bin/cbc computational_data/lp/ER_n20_p035_s9.lp seconds 10.0 solve solu computational_data/solutions/ER_n20_p035_s9.sol (default strategy 1)
seconds was changed from 1e+100 to 10
Continuous objective value is 4.73684 - 0.00 seconds
Cgl0003I 0 fixed, 0 tightened bounds, 60 strengthened rows, 0 substitutions
Cgl0003I 0 fixed, 0 tightened bounds, 59 strengthened rows, 0 substitutions
Cgl0003I 0 fixed, 0 tightened bounds, 24 strengthened rows, 0 substitutions
Cgl0003I 0 fixed, 0 tightened bounds, 10 strengthened rows, 0 substitutions
Cgl0003I 0 fixed, 0 tightened bounds, 4 strengthened rows, 0 substitutions
Cgl0004I processed model has 134 rows, 40 columns (40 integer (40 of which binary)) and 644 elements
Cutoff increment increased from 1e-05 to 0.9999
Cbc0038I Initial state - 20 integers unsatisfied sum - 4.73684
Cbc0038I Pass   1: suminf.    4.73913 (21) obj. 4.73913 iterations 2
Cbc0038I Pass   2: suminf.    0.00000 (0) obj. 9 iterations 42
Cbc0038I Solution found of 9
Cbc0038I Before mini branch and bound, 19 integers at bound fixed and 0 continuous
Cbc0038I Full problem 134 rows 40 columns, reduced to 89 rows 21 columns
Cbc0038I Mini branch and bound did not improve solution (0.01 seconds)
Cbc0038I Round again with cutoff of 7.67377
Cbc0038I Pass   3: suminf.    4.73913 (21) obj. 4.73913 iterations 0
Cbc0038I Pass   4: suminf.    2.21038 (5) obj. 7.67377 iterations 47
Cbc0038I Pass   5: suminf.    1.85672 (7) obj. 7.67377 iterations 20
Cbc0038I Pass   6: suminf.    2.90909 (16) obj. 5.81818 iterations 33
Cbc0038I Pass   7: suminf.    6.00000 (12) obj. 7 iterations 37
Cbc0038I Pass   8: suminf.    4.08095 (20) obj. 5.28095 iterations 41
Cbc0038I Pass   9: suminf.    3.80934 (21) obj. 5.52529 iterations 15
Cbc0038I Pass  10: suminf.    3.31169 (21) obj. 5.51948 iterations 10
Cbc0038I Pass  11: suminf.    3.00000 (18) obj. 5.8 iterations 12
Cbc0038I Pass  12: suminf.    2.97868 (8) obj. 7.67377 iterations 40
Cbc0038I Pass  13: suminf.    1.95735 (12) obj. 7.67377 iterations 15
Cbc0038I Pass  14: suminf.    0.83369 (17) obj. 7.67377 iterations 24
Cbc0038I Pass  15: suminf.    3.36887 (10) obj. 7.67377 iterations 41
Cbc0038I Solution found of 7
Cbc0038I Before mini branch and bound, 9 integers at bound fixed and 0 continuous
Cbc0038I Full problem 134 rows 40 columns, reduced to 115 rows 31 columns
Cbc0038I Mini branch and bound did not improve solution (0.03 seconds)
Cbc0038I Round again with cutoff of 5.74745
Cbc0038I Pass  16: suminf.    4.73913 (21) obj. 4.73913 iterations 0
Cbc0038I Pass  17: suminf.    5.74745 (12) obj. 5.74745 iterations 25
Cbc0038I Pass  18: suminf.    4.82015 (21) obj. 5.74745 iterations 26
Cbc0038I Pass  19: suminf.    4.10983 (21) obj. 5.74745 iterations 17
Cbc0038I Pass  20: suminf.    4.12628 (16) obj. 5.74745 iterations 37
Cbc0038I Pass  21: suminf.    3.37087 (16) obj. 5.74745 iterations 15
Cbc0038I Pass  22: suminf.    4.70102 (17) obj. 5.74745 iterations 39
Cbc0038I Pass  23: suminf.    3.61168 (15) obj. 5.74745 iterations 20
Cbc0038I Pass  24: suminf.    4.15153 (15) obj. 5.74745 iterations 27
Cbc0038I Pass  25: suminf.    3.39172 (19) obj. 5.74745 iterations 22
Cbc0038I Pass  26: suminf.    4.20876 (18) obj. 5.74745 iterations 26
Cbc0038I Pass  27: suminf.    3.59471 (12) obj. 5.74745 iterations 12
Cbc0038I Pass  28: suminf.    3.51051 (17) obj. 5.74745 iterations 30
Cbc0038I Pass  29: suminf.    4.56058 (18) obj. 5.74745 iterations 18
Cbc0038I Pass  30: suminf.    3.25255 (16) obj. 5.74745 iterations 15
Cbc0038I Pass  31: suminf.    4.70876 (17) obj. 5.74745 iterations 35
Cbc0038I Pass  32: suminf.    3.11225 (20) obj. 5.74745 iterations 20
Cbc0038I Pass  33: suminf.    5.15357 (14) obj. 5.74745 iterations 36
Cbc0038I Pass  34: suminf.    4.11225 (18) obj. 5.74745 iterations 15
Cbc0038I Pass  35: suminf.    3.33571 (19) obj. 5.74745 iterations 10
Cbc0038I Pass  36: suminf.    2.64087 (17) obj. 5.74745 iterations 16
Cbc0038I Pass  37: suminf.    5.34099 (17) obj. 5.74745 iterations 21
Cbc0038I Pass  38: suminf.    3.94118 (19) obj. 5.70588 iterations 27
Cbc0038I Pass  39: suminf.    3.85051 (18) obj. 5.74745 iterations 8
Cbc0038I Pass  40: suminf.    4.74541 (12) obj. 5.74745 iterations 29
Cbc0038I Pass  41: suminf.    3.02251 (21) obj. 5.74745 iterations 27
Cbc0038I Pass  42: suminf.    4.72434 (17) obj. 5.74745 iterations 41
Cbc0038I Pass  43: suminf.    3.56325 (18) obj. 5.74745 iterations 18
Cbc0038I Pass  44: suminf.    5.15357 (13) obj. 5.74745 iterations 36
Cbc0038I Pass  45: suminf.    4.32398 (16) obj. 5.74745 iterations 21
Cbc0038I No solution found this major pass
Cbc0038I Before mini branch and bound, 1 integers at bound fixed and 0 continuous
Cbc0038I Full problem 134 rows 40 columns, reduced to 133 rows 39 columns - 3 fixed gives 55, 19 - ok now
Cbc0038I Mini branch and bound did not improve solution (0.04 seconds)
Cbc0038I After 0.04 seconds - Feasibility pump exiting with objective of 7 - took 0.04 seconds
Cbc0012I Integer solution of 7 found by feasibility pump after 0 iterations and 0 nodes (0.04 seconds)
Cbc0038I Full problem 134 rows 40 columns, reduced to 93 rows 22 columns
Cbc0031I 4 added rows had average density of 31.5
Cbc0013I At root node, 4 cuts changed objective from 4.7368421 to 5.9999927 in 100 passes
Cbc0014I Cut generator 0 (Probing) - 1 row cuts average 6.0 elements, 0 column cuts (0 active)  in 0.013 seconds - new frequency is -100
Cbc0014I Cut generator 1 (Gomory) - 1071 row cuts average 39.6 elements, 0 column cuts (0 active)  in 0.011 seconds - new frequency is 1
Cbc0014I Cut generator 2 (Knapsack) - 0 row cuts average 0.0 elements, 0 column cuts (0 active)  in 0.007 seconds - new frequency is -100
Cbc0014I Cut generator 3 (Clique) - 0 row cuts average 0.0 elements, 0 column cuts (0 active)  in 0.002 seconds - new frequency is -100
Cbc0014I Cut generator 4 (MixedIntegerRounding2) - 117 row cuts average 40.0 elements, 0 column cuts (0 active)  in 0.010 seconds - new frequency is -100
Cbc0014I Cut generator 5 (FlowCover) - 0 row cuts average 0.0 elements, 0 column cuts (0 active)  in 0.001 seconds - new frequency is -100
Cbc0010I After 0 nodes, 1 on tree, 7 best solution, best possible 5.9999927 (0.13 seconds)
Cbc0001I Search completed - best objective 7, took 4113 iterations and 24 nodes (0.20 seconds)
Cbc0032I Strong branching done 368 times (6117 iterations), fathomed 6 nodes and fixed 4 variables
Cbc0035I Maximum depth 10, 14 variables fixed on reduced cost
Cuts at root node changed objective from 4.73684 to 5.99999
Probing was tried 100 times and created 1 cuts of which 0 were active after adding rounds of cuts (0.013 seconds)
Gomory was tried 157 times and created 1291 cuts of which 0 were active after adding rounds of cuts (0.015 seconds)
Knapsack was tried 100 times and created 0 cuts of which 0 were active after adding rounds of cuts (0.007 seconds)
Clique was tried 100 times and created 0 cuts of which 0 were active after adding rounds of cuts (0.002 seconds)
MixedIntegerRounding2 was tried 100 times and created 117 cuts of which 0 were active after adding rounds of cuts (0.010 seconds)
FlowCover was tried 100 times and created 0 cuts of which 0 were active after adding rounds of cuts (0.001 seconds)
TwoMirCuts was tried 1 times and created 0 cuts of which 0 were active after adding rounds of cuts (0.000 seconds)
ZeroHalf was tried 1 times and created 0 cuts of which 0 were active after adding rounds of cuts (0.000 seconds)

Result - Optimal solution found

Objective value:                7.00000000
Enumerated nodes:               24
Total iterations:               4113
Time (CPU seconds):             0.21
Time (Wallclock seconds):       0.22

Total time (CPU seconds):       0.21   (Wallclock seconds):       0.22

